c Lingeling SAT Solver
c 
c Version azf 92032848c138b2f33629ad24394d60a3787a1046
c 
c Copyright (C) 2010-2014 Armin Biere JKU Linz Austria.
c All rights reserved.
c 
c released Don Mai 22 22:08:00 CEST 2014
c compiled Mon Oct  6 05:55:43 PDT 2014
c 
c gcc (Ubuntu 4.8.2-19ubuntu1) 4.8.2
c -Wall -O3 -DNDBLSCR -DNLGLOG -DNDEBUG -DNCHKSOL -DNLGLPICOSAT -DNLGLDRUPLIG
c -DNLGLYALSAT
c Linux ubuntu 3.13.0-32-generic x86_64
c 
c reading input file benchmark-sat/translations/gc-le450_15b-12.cnf
c no embedded options
c found 'p cnf 5400 128178' header
c read 5400 variables, 128178 clauses, 260856 literals in 0.00 seconds
c 
c  seconds         irredundant          redundant clauses agility   height
c          variables clauses conflicts large ternary binary    glue         MB
c 
c S    0.0    5400   128178         0       0      0     0   0  0.0   0.0    5
c P    1.0    4905    97938      1002     905      0 24524   5 10.6  93.5    5
c P    2.0    4905    97938      1002     905      0 24524   5 10.6  93.5    6
c S    5.0    4902    97935      1002     683      0 24491   5 10.6  93.5    5
c S   10.0    4902    97935     98775   16865      0 24491   4 24.1  38.3   10
c S   20.1    4902    97935    271801   25382      0 24491   4 24.0  40.8   15
c S   30.1    4902    97933    433714   24887      0 24491   5 25.6  40.2   16
c S   40.0    4902    97933    560402   23789      0 24491   3 25.1  38.7   24
c S   50.0    4902    97933    689529   34950      0 24491   3 25.2  38.7   20
c S   60.0    4902    97933    817629   28853      0 24491   3 26.8  40.0   20
c S  120.0    4902    97933   1541897   56517      0 24491   4 25.7  37.6   36
c S  180.1    4902    97933   2266952   56585      0 24491   4 24.4  34.8   53
c S  240.1    4902    97933   2869387   75535      0 24491   5 24.8  35.4   43
c S  300.0    4902    97933   3572394   67100      0 24491   4 25.8  38.2   44
c S  600.0    4893    97904   7096357  103137      0 24455   4 27.6  42.2   54
c S  900.1    4893    97904  10224784  158127      0 24455   4 28.6  42.8   85
